W1 Se2                                  
   1.00000000000000     
     3.2700000000000000    0.0000000000000000    0.0000000000000000
    -1.6350000000000000    2.8312795677000002    0.0000000000000000
     0.0000000000000000    0.0000000000000000   12.2949999999999999
   W    Se
     1     2
Direct
  0.0001119784359034  0.0002239113770699  0.5000000000000000
  0.6666106977820547  0.3332213873114682  0.6374032884642631
  0.6666106977820547  0.3332213873114682  0.3625967115357369
 
  0.00000000E+00  0.00000000E+00  0.00000000E+00
  0.00000000E+00  0.00000000E+00  0.00000000E+00
  0.00000000E+00  0.00000000E+00  0.00000000E+00
