W1 Se2
1.0
        3.2699999809         0.0000000000         0.0000000000
       -1.6349999263         2.8312795145         0.0000000000
        0.0000000000         0.0000000000        12.3000001907
    W   Se
    1    2
Direct
     0.000000000         0.000000000         0.500000000
     0.666666985         0.333332986         0.591471016
     0.666666985         0.333332986         0.408529013
