W1 S2                                   
   1.00000000000000     
     3.1200000000000001    0.0000000000000000    0.0000000000000000
    -1.5600000000000001    2.7026164849000001    0.0000000000000000
     0.0000000000000000    0.0000000000000000   12.3000000000000007
   W    S 
     1     2
Direct
  0.9998678168399522  0.9997355813576689  0.5000000000000000
  0.6667327785800268  0.3334655523211651  0.6295384683390779
  0.6667327785800268  0.3334655523211651  0.3704615316609221
 
  0.00000000E+00  0.00000000E+00  0.00000000E+00
  0.00000000E+00  0.00000000E+00  0.00000000E+00
  0.00000000E+00  0.00000000E+00  0.00000000E+00
