W1 S2
1.0
        3.1199998856         0.0000000000         0.0000000000
       -1.5600000688         2.7026168481         0.0000000000
        0.0000000000         0.0000000000        12.3000001907
    W    S
    1    2
Direct
     0.000000000         0.000000000         0.500000000
     0.666666985         0.333332986         0.586677015
     0.666666985         0.333332986         0.413322985
